c FILE /home/rafael/Documents/HappySet/MIHS/inputs/happygen/output/graph_random_k2_p0.3_v100_20241127_083554.txt
c SOURCE This is a random graph formed for the happy graph colouring problem.
c DESCRIPTION It was generated using the problem generator of Rhyd Lewis
c
c GRAPH STATS
c Seed                             = -2047217745
c Number of Nodes                  = 100
c Edge probability defined by user = 0.5
c Number of colours k              = 2
c Number of pre-assignments        = 30
c Actual density                   = 0.50303
c 
c The degrees of nodes 1 to 100, respectively, are as follows 
c [60, 58, 58, 58, 57, 57, 57, 57, 56, 56, 56, 56, 56, 55, 55, 55, 55, 55, 55, 55, 54, 54, 54, 54, 54, 54, 
c  54, 54, 53, 53, 53, 53, 53, 53, 52, 52, 52, 52, 52, 51, 51, 51, 51, 51, 51, 51, 51, 51, 51, 50, 50, 
c  50, 50, 50, 50, 50, 50, 50, 49, 49, 49, 48, 48, 48, 48, 47, 47, 47, 47, 47, 46, 46, 46, 46, 45, 45, 
c  45, 45, 45, 45, 45, 45, 45, 45, 45, 44, 44, 44, 44, 44, 43, 42, 42, 42, 42, 41, 41, 41, 38, 38] 
c  
p edge 100 2490 2
e 1 2
e 1 3
e 1 4
e 1 5
e 1 7
e 1 9
e 1 10
e 1 12
e 1 13
e 1 14
e 1 16
e 1 19
e 1 21
e 1 23
e 1 24
e 1 27
e 1 29
e 1 30
e 1 31
e 1 34
e 1 35
e 1 38
e 1 39
e 1 42
e 1 43
e 1 44
e 1 45
e 1 46
e 1 52
e 1 54
e 1 55
e 1 56
e 1 57
e 1 59
e 1 60
e 1 61
e 1 62
e 1 63
e 1 64
e 1 66
e 1 67
e 1 68
e 1 72
e 1 73
e 1 74
e 1 76
e 1 78
e 1 80
e 1 83
e 1 84
e 1 85
e 1 87
e 1 89
e 1 92
e 1 93
e 1 95
e 1 96
e 1 97
e 1 98
e 1 100
e 2 3
e 2 4
e 2 7
e 2 8
e 2 10
e 2 11
e 2 13
e 2 17
e 2 18
e 2 20
e 2 23
e 2 25
e 2 26
e 2 27
e 2 30
e 2 31
e 2 32
e 2 33
e 2 34
e 2 35
e 2 37
e 2 41
e 2 42
e 2 43
e 2 44
e 2 45
e 2 46
e 2 47
e 2 48
e 2 50
e 2 51
e 2 52
e 2 53
e 2 54
e 2 57
e 2 59
e 2 60
e 2 61
e 2 62
e 2 64
e 2 66
e 2 68
e 2 70
e 2 71
e 2 72
e 2 74
e 2 80
e 2 81
e 2 82
e 2 83
e 2 85
e 2 88
e 2 89
e 2 91
e 2 94
e 2 96
e 2 100
e 3 5
e 3 7
e 3 10
e 3 11
e 3 12
e 3 14
e 3 15
e 3 16
e 3 19
e 3 20
e 3 21
e 3 23
e 3 24
e 3 26
e 3 27
e 3 28
e 3 31
e 3 32
e 3 33
e 3 35
e 3 36
e 3 40
e 3 41
e 3 42
e 3 43
e 3 44
e 3 45
e 3 48
e 3 49
e 3 50
e 3 51
e 3 52
e 3 53
e 3 54
e 3 56
e 3 57
e 3 58
e 3 59
e 3 60
e 3 64
e 3 65
e 3 67
e 3 71
e 3 74
e 3 77
e 3 78
e 3 80
e 3 81
e 3 84
e 3 85
e 3 86
e 3 87
e 3 93
e 3 94
e 3 95
e 3 99
e 4 6
e 4 7
e 4 13
e 4 14
e 4 15
e 4 16
e 4 17
e 4 18
e 4 19
e 4 20
e 4 21
e 4 22
e 4 24
e 4 25
e 4 27
e 4 28
e 4 29
e 4 34
e 4 37
e 4 38
e 4 39
e 4 40
e 4 41
e 4 42
e 4 43
e 4 44
e 4 46
e 4 47
e 4 50
e 4 52
e 4 54
e 4 56
e 4 58
e 4 61
e 4 62
e 4 63
e 4 64
e 4 65
e 4 66
e 4 67
e 4 68
e 4 69
e 4 71
e 4 73
e 4 75
e 4 76
e 4 79
e 4 81
e 4 82
e 4 84
e 4 90
e 4 91
e 4 93
e 4 95
e 4 98
e 4 99
e 5 6
e 5 7
e 5 8
e 5 9
e 5 10
e 5 11
e 5 12
e 5 13
e 5 14
e 5 15
e 5 17
e 5 18
e 5 21
e 5 24
e 5 26
e 5 27
e 5 31
e 5 33
e 5 34
e 5 36
e 5 39
e 5 42
e 5 44
e 5 47
e 5 49
e 5 50
e 5 51
e 5 52
e 5 53
e 5 57
e 5 58
e 5 60
e 5 61
e 5 62
e 5 65
e 5 67
e 5 69
e 5 70
e 5 71
e 5 72
e 5 73
e 5 75
e 5 78
e 5 79
e 5 80
e 5 82
e 5 87
e 5 88
e 5 90
e 5 91
e 5 93
e 5 95
e 5 96
e 5 98
e 5 99
e 6 7
e 6 9
e 6 11
e 6 12
e 6 15
e 6 16
e 6 17
e 6 20
e 6 21
e 6 22
e 6 23
e 6 24
e 6 25
e 6 26
e 6 27
e 6 28
e 6 29
e 6 30
e 6 31
e 6 33
e 6 36
e 6 40
e 6 41
e 6 42
e 6 43
e 6 46
e 6 47
e 6 48
e 6 52
e 6 53
e 6 56
e 6 57
e 6 59
e 6 61
e 6 63
e 6 67
e 6 69
e 6 70
e 6 71
e 6 73
e 6 74
e 6 75
e 6 76
e 6 77
e 6 78
e 6 80
e 6 81
e 6 83
e 6 87
e 6 88
e 6 89
e 6 92
e 6 94
e 6 96
e 6 98
e 7 8
e 7 9
e 7 12
e 7 13
e 7 15
e 7 16
e 7 17
e 7 18
e 7 20
e 7 21
e 7 22
e 7 25
e 7 26
e 7 30
e 7 31
e 7 33
e 7 36
e 7 37
e 7 38
e 7 40
e 7 43
e 7 44
e 7 45
e 7 46
e 7 48
e 7 49
e 7 50
e 7 51
e 7 52
e 7 54
e 7 55
e 7 57
e 7 58
e 7 61
e 7 62
e 7 63
e 7 65
e 7 67
e 7 69
e 7 71
e 7 72
e 7 73
e 7 77
e 7 78
e 7 81
e 7 82
e 7 84
e 7 87
e 7 90
e 7 91
e 7 99
e 8 11
e 8 12
e 8 14
e 8 19
e 8 20
e 8 21
e 8 22
e 8 25
e 8 26
e 8 27
e 8 28
e 8 29
e 8 30
e 8 34
e 8 36
e 8 37
e 8 39
e 8 42
e 8 43
e 8 46
e 8 47
e 8 48
e 8 49
e 8 50
e 8 53
e 8 54
e 8 55
e 8 57
e 8 58
e 8 59
e 8 60
e 8 61
e 8 62
e 8 63
e 8 64
e 8 66
e 8 70
e 8 71
e 8 72
e 8 75
e 8 76
e 8 77
e 8 79
e 8 82
e 8 84
e 8 85
e 8 87
e 8 88
e 8 92
e 8 93
e 8 95
e 8 97
e 8 99
e 8 100
e 9 10
e 9 12
e 9 13
e 9 14
e 9 15
e 9 16
e 9 18
e 9 19
e 9 21
e 9 24
e 9 25
e 9 26
e 9 27
e 9 28
e 9 29
e 9 30
e 9 31
e 9 32
e 9 33
e 9 34
e 9 37
e 9 39
e 9 42
e 9 46
e 9 47
e 9 49
e 9 50
e 9 51
e 9 52
e 9 54
e 9 55
e 9 57
e 9 58
e 9 60
e 9 61
e 9 63
e 9 66
e 9 67
e 9 68
e 9 69
e 9 70
e 9 74
e 9 77
e 9 78
e 9 81
e 9 84
e 9 85
e 9 89
e 9 90
e 9 92
e 9 95
e 9 97
e 10 12
e 10 13
e 10 16
e 10 18
e 10 20
e 10 21
e 10 22
e 10 23
e 10 24
e 10 26
e 10 27
e 10 28
e 10 30
e 10 31
e 10 33
e 10 34
e 10 35
e 10 36
e 10 38
e 10 40
e 10 45
e 10 48
e 10 49
e 10 50
e 10 53
e 10 55
e 10 56
e 10 58
e 10 59
e 10 60
e 10 62
e 10 66
e 10 69
e 10 70
e 10 71
e 10 74
e 10 75
e 10 76
e 10 78
e 10 81
e 10 82
e 10 83
e 10 85
e 10 87
e 10 89
e 10 90
e 10 91
e 10 97
e 10 98
e 10 99
e 10 100
e 11 12
e 11 13
e 11 18
e 11 19
e 11 23
e 11 24
e 11 26
e 11 27
e 11 31
e 11 32
e 11 33
e 11 34
e 11 35
e 11 37
e 11 39
e 11 40
e 11 44
e 11 45
e 11 47
e 11 48
e 11 49
e 11 50
e 11 51
e 11 52
e 11 53
e 11 55
e 11 59
e 11 60
e 11 61
e 11 62
e 11 64
e 11 65
e 11 67
e 11 68
e 11 69
e 11 73
e 11 74
e 11 75
e 11 78
e 11 79
e 11 81
e 11 82
e 11 83
e 11 84
e 11 85
e 11 88
e 11 92
e 11 94
e 11 95
e 11 96
e 11 97
e 12 13
e 12 14
e 12 15
e 12 16
e 12 17
e 12 18
e 12 19
e 12 20
e 12 21
e 12 24
e 12 25
e 12 29
e 12 32
e 12 33
e 12 34
e 12 39
e 12 41
e 12 43
e 12 44
e 12 47
e 12 49
e 12 52
e 12 54
e 12 55
e 12 56
e 12 58
e 12 59
e 12 60
e 12 63
e 12 64
e 12 65
e 12 66
e 12 67
e 12 69
e 12 72
e 12 75
e 12 76
e 12 77
e 12 80
e 12 81
e 12 83
e 12 86
e 12 89
e 12 92
e 12 94
e 12 98
e 12 99
e 13 18
e 13 24
e 13 26
e 13 28
e 13 30
e 13 31
e 13 32
e 13 33
e 13 34
e 13 37
e 13 38
e 13 39
e 13 40
e 13 41
e 13 42
e 13 43
e 13 44
e 13 48
e 13 50
e 13 51
e 13 52
e 13 53
e 13 54
e 13 55
e 13 58
e 13 59
e 13 61
e 13 62
e 13 63
e 13 64
e 13 68
e 13 70
e 13 71
e 13 72
e 13 76
e 13 79
e 13 80
e 13 81
e 13 82
e 13 83
e 13 86
e 13 87
e 13 88
e 13 91
e 13 94
e 13 97
e 13 99
e 14 15
e 14 16
e 14 17
e 14 19
e 14 20
e 14 21
e 14 22
e 14 24
e 14 26
e 14 27
e 14 31
e 14 33
e 14 34
e 14 36
e 14 41
e 14 42
e 14 43
e 14 44
e 14 46
e 14 48
e 14 49
e 14 50
e 14 51
e 14 53
e 14 54
e 14 55
e 14 56
e 14 57
e 14 62
e 14 64
e 14 65
e 14 66
e 14 67
e 14 68
e 14 69
e 14 70
e 14 71
e 14 75
e 14 77
e 14 78
e 14 79
e 14 80
e 14 81
e 14 89
e 14 90
e 14 97
e 14 99
e 14 100
e 15 16
e 15 19
e 15 20
e 15 22
e 15 23
e 15 25
e 15 28
e 15 29
e 15 32
e 15 33
e 15 34
e 15 35
e 15 36
e 15 38
e 15 41
e 15 42
e 15 45
e 15 49
e 15 50
e 15 51
e 15 53
e 15 56
e 15 57
e 15 59
e 15 60
e 15 61
e 15 62
e 15 67
e 15 68
e 15 69
e 15 73
e 15 77
e 15 78
e 15 80
e 15 81
e 15 82
e 15 84
e 15 86
e 15 90
e 15 91
e 15 92
e 15 93
e 15 94
e 15 95
e 15 96
e 15 98
e 15 99
e 16 17
e 16 21
e 16 23
e 16 24
e 16 26
e 16 27
e 16 28
e 16 29
e 16 30
e 16 31
e 16 32
e 16 33
e 16 34
e 16 37
e 16 39
e 16 42
e 16 43
e 16 44
e 16 45
e 16 46
e 16 47
e 16 48
e 16 49
e 16 51
e 16 54
e 16 55
e 16 56
e 16 60
e 16 61
e 16 63
e 16 64
e 16 65
e 16 69
e 16 71
e 16 72
e 16 73
e 16 74
e 16 79
e 16 81
e 16 83
e 16 85
e 16 87
e 16 89
e 16 90
e 16 94
e 17 18
e 17 19
e 17 20
e 17 21
e 17 24
e 17 25
e 17 26
e 17 27
e 17 28
e 17 30
e 17 31
e 17 32
e 17 38
e 17 39
e 17 41
e 17 42
e 17 44
e 17 46
e 17 49
e 17 53
e 17 57
e 17 58
e 17 59
e 17 61
e 17 63
e 17 65
e 17 67
e 17 68
e 17 69
e 17 70
e 17 71
e 17 72
e 17 73
e 17 74
e 17 75
e 17 76
e 17 77
e 17 80
e 17 82
e 17 83
e 17 84
e 17 88
e 17 91
e 17 92
e 17 93
e 17 94
e 17 99
e 18 19
e 18 20
e 18 21
e 18 22
e 18 23
e 18 24
e 18 26
e 18 27
e 18 28
e 18 29
e 18 30
e 18 32
e 18 33
e 18 34
e 18 36
e 18 38
e 18 39
e 18 41
e 18 44
e 18 45
e 18 46
e 18 47
e 18 49
e 18 50
e 18 51
e 18 53
e 18 60
e 18 62
e 18 63
e 18 64
e 18 67
e 18 72
e 18 74
e 18 77
e 18 80
e 18 81
e 18 84
e 18 89
e 18 90
e 18 92
e 18 93
e 18 94
e 18 97
e 18 98
e 18 100
e 19 24
e 19 25
e 19 27
e 19 28
e 19 29
e 19 30
e 19 31
e 19 34
e 19 37
e 19 38
e 19 39
e 19 41
e 19 43
e 19 45
e 19 46
e 19 47
e 19 51
e 19 53
e 19 55
e 19 57
e 19 59
e 19 62
e 19 68
e 19 69
e 19 70
e 19 71
e 19 74
e 19 75
e 19 78
e 19 79
e 19 80
e 19 82
e 19 83
e 19 85
e 19 87
e 19 89
e 19 90
e 19 91
e 19 93
e 19 96
e 19 97
e 19 98
e 19 99
e 19 100
e 20 21
e 20 22
e 20 23
e 20 24
e 20 25
e 20 26
e 20 27
e 20 32
e 20 33
e 20 34
e 20 35
e 20 37
e 20 38
e 20 39
e 20 40
e 20 41
e 20 42
e 20 44
e 20 49
e 20 50
e 20 51
e 20 52
e 20 53
e 20 57
e 20 58
e 20 60
e 20 61
e 20 62
e 20 65
e 20 68
e 20 69
e 20 70
e 20 72
e 20 73
e 20 76
e 20 81
e 20 82
e 20 83
e 20 88
e 20 89
e 20 90
e 20 95
e 20 99
e 21 22
e 21 23
e 21 24
e 21 25
e 21 26
e 21 27
e 21 34
e 21 35
e 21 36
e 21 37
e 21 39
e 21 40
e 21 41
e 21 44
e 21 49
e 21 51
e 21 55
e 21 56
e 21 58
e 21 61
e 21 63
e 21 64
e 21 65
e 21 66
e 21 67
e 21 69
e 21 70
e 21 71
e 21 72
e 21 73
e 21 75
e 21 76
e 21 80
e 21 81
e 21 86
e 21 88
e 21 90
e 21 95
e 21 98
e 22 25
e 22 26
e 22 28
e 22 31
e 22 34
e 22 36
e 22 39
e 22 40
e 22 41
e 22 42
e 22 43
e 22 45
e 22 46
e 22 49
e 22 52
e 22 53
e 22 54
e 22 55
e 22 56
e 22 57
e 22 58
e 22 59
e 22 60
e 22 61
e 22 62
e 22 63
e 22 66
e 22 67
e 22 68
e 22 70
e 22 73
e 22 76
e 22 80
e 22 81
e 22 84
e 22 87
e 22 88
e 22 89
e 22 90
e 22 91
e 22 92
e 22 95
e 22 97
e 22 99
e 23 25
e 23 26
e 23 28
e 23 30
e 23 31
e 23 34
e 23 36
e 23 37
e 23 38
e 23 40
e 23 42
e 23 44
e 23 45
e 23 47
e 23 49
e 23 50
e 23 51
e 23 52
e 23 53
e 23 54
e 23 55
e 23 56
e 23 58
e 23 59
e 23 60
e 23 61
e 23 63
e 23 64
e 23 66
e 23 67
e 23 69
e 23 73
e 23 75
e 23 76
e 23 77
e 23 80
e 23 81
e 23 82
e 23 85
e 23 91
e 23 95
e 23 96
e 23 98
e 24 25
e 24 26
e 24 27
e 24 29
e 24 30
e 24 31
e 24 32
e 24 33
e 24 35
e 24 38
e 24 39
e 24 40
e 24 46
e 24 47
e 24 49
e 24 50
e 24 51
e 24 53
e 24 54
e 24 56
e 24 57
e 24 58
e 24 60
e 24 63
e 24 65
e 24 67
e 24 71
e 24 75
e 24 77
e 24 79
e 24 83
e 24 85
e 24 87
e 24 88
e 24 91
e 24 92
e 24 98
e 25 26
e 25 28
e 25 30
e 25 32
e 25 33
e 25 35
e 25 36
e 25 37
e 25 40
e 25 42
e 25 44
e 25 47
e 25 48
e 25 50
e 25 52
e 25 53
e 25 56
e 25 57
e 25 58
e 25 59
e 25 61
e 25 62
e 25 65
e 25 68
e 25 71
e 25 72
e 25 73
e 25 74
e 25 75
e 25 77
e 25 78
e 25 79
e 25 81
e 25 83
e 25 85
e 25 86
e 25 89
e 25 92
e 25 100
e 26 27
e 26 28
e 26 29
e 26 32
e 26 34
e 26 39
e 26 40
e 26 44
e 26 45
e 26 46
e 26 47
e 26 48
e 26 49
e 26 50
e 26 51
e 26 52
e 26 56
e 26 59
e 26 61
e 26 63
e 26 68
e 26 70
e 26 71
e 26 72
e 26 73
e 26 74
e 26 78
e 26 79
e 26 80
e 26 83
e 26 92
e 26 94
e 26 98
e 26 99
e 27 28
e 27 29
e 27 32
e 27 34
e 27 35
e 27 36
e 27 38
e 27 41
e 27 43
e 27 45
e 27 46
e 27 47
e 27 48
e 27 51
e 27 53
e 27 54
e 27 55
e 27 57
e 27 58
e 27 62
e 27 65
e 27 66
e 27 72
e 27 74
e 27 76
e 27 78
e 27 81
e 27 83
e 27 84
e 27 86
e 27 88
e 27 91
e 27 92
e 27 96
e 27 98
e 28 30
e 28 33
e 28 34
e 28 35
e 28 36
e 28 37
e 28 38
e 28 40
e 28 42
e 28 44
e 28 47
e 28 48
e 28 49
e 28 51
e 28 53
e 28 58
e 28 59
e 28 62
e 28 64
e 28 65
e 28 67
e 28 68
e 28 69
e 28 71
e 28 72
e 28 73
e 28 75
e 28 77
e 28 78
e 28 79
e 28 81
e 28 82
e 28 85
e 28 86
e 28 87
e 28 96
e 28 97
e 29 31
e 29 32
e 29 33
e 29 35
e 29 37
e 29 38
e 29 40
e 29 42
e 29 46
e 29 47
e 29 49
e 29 51
e 29 52
e 29 55
e 29 56
e 29 57
e 29 60
e 29 61
e 29 62
e 29 65
e 29 66
e 29 67
e 29 68
e 29 69
e 29 70
e 29 71
e 29 75
e 29 76
e 29 77
e 29 78
e 29 79
e 29 83
e 29 89
e 29 90
e 29 92
e 29 93
e 29 95
e 29 96
e 29 97
e 29 98
e 30 33
e 30 36
e 30 37
e 30 39
e 30 40
e 30 41
e 30 42
e 30 43
e 30 46
e 30 48
e 30 50
e 30 53
e 30 54
e 30 55
e 30 58
e 30 61
e 30 67
e 30 68
e 30 70
e 30 71
e 30 76
e 30 77
e 30 78
e 30 79
e 30 81
e 30 82
e 30 83
e 30 84
e 30 85
e 30 87
e 30 88
e 30 89
e 30 90
e 30 93
e 30 95
e 30 96
e 30 98
e 31 34
e 31 35
e 31 36
e 31 40
e 31 41
e 31 43
e 31 45
e 31 47
e 31 51
e 31 53
e 31 55
e 31 60
e 31 62
e 31 63
e 31 64
e 31 65
e 31 66
e 31 73
e 31 75
e 31 79
e 31 80
e 31 81
e 31 82
e 31 83
e 31 85
e 31 86
e 31 87
e 31 89
e 31 90
e 31 91
e 31 93
e 31 94
e 31 95
e 31 97
e 31 98
e 32 33
e 32 34
e 32 35
e 32 36
e 32 38
e 32 39
e 32 42
e 32 43
e 32 44
e 32 46
e 32 47
e 32 49
e 32 51
e 32 54
e 32 55
e 32 58
e 32 59
e 32 62
e 32 63
e 32 65
e 32 66
e 32 67
e 32 68
e 32 70
e 32 72
e 32 73
e 32 78
e 32 79
e 32 82
e 32 84
e 32 85
e 32 89
e 32 90
e 32 92
e 32 94
e 32 98
e 32 100
e 33 35
e 33 37
e 33 38
e 33 39
e 33 40
e 33 41
e 33 42
e 33 45
e 33 46
e 33 47
e 33 49
e 33 52
e 33 54
e 33 55
e 33 56
e 33 57
e 33 59
e 33 62
e 33 63
e 33 66
e 33 69
e 33 79
e 33 80
e 33 82
e 33 84
e 33 85
e 33 86
e 33 87
e 33 89
e 33 93
e 33 99
e 33 100
e 34 36
e 34 37
e 34 38
e 34 39
e 34 40
e 34 41
e 34 45
e 34 46
e 34 47
e 34 48
e 34 52
e 34 56
e 34 57
e 34 58
e 34 59
e 34 60
e 34 62
e 34 65
e 34 72
e 34 73
e 34 76
e 34 83
e 34 85
e 34 92
e 34 93
e 34 94
e 34 96
e 34 99
e 34 100
e 35 36
e 35 39
e 35 41
e 35 43
e 35 47
e 35 48
e 35 50
e 35 51
e 35 57
e 35 58
e 35 59
e 35 60
e 35 61
e 35 63
e 35 64
e 35 66
e 35 67
e 35 68
e 35 69
e 35 70
e 35 71
e 35 74
e 35 76
e 35 77
e 35 80
e 35 81
e 35 83
e 35 84
e 35 87
e 35 89
e 35 91
e 35 94
e 35 95
e 35 98
e 35 99
e 35 100
e 36 37
e 36 38
e 36 39
e 36 41
e 36 42
e 36 44
e 36 45
e 36 47
e 36 49
e 36 50
e 36 54
e 36 56
e 36 57
e 36 58
e 36 61
e 36 62
e 36 64
e 36 66
e 36 68
e 36 69
e 36 71
e 36 72
e 36 73
e 36 75
e 36 78
e 36 79
e 36 81
e 36 83
e 36 88
e 36 93
e 36 94
e 36 95
e 37 39
e 37 42
e 37 43
e 37 45
e 37 46
e 37 47
e 37 48
e 37 49
e 37 53
e 37 55
e 37 58
e 37 63
e 37 64
e 37 66
e 37 67
e 37 68
e 37 69
e 37 70
e 37 77
e 37 78
e 37 79
e 37 81
e 37 85
e 37 88
e 37 90
e 37 91
e 37 92
e 37 93
e 37 94
e 37 95
e 37 97
e 37 98
e 37 100
e 38 39
e 38 42
e 38 43
e 38 45
e 38 46
e 38 47
e 38 48
e 38 49
e 38 50
e 38 53
e 38 54
e 38 56
e 38 57
e 38 59
e 38 60
e 38 64
e 38 67
e 38 68
e 38 69
e 38 70
e 38 72
e 38 74
e 38 75
e 38 80
e 38 83
e 38 85
e 38 89
e 38 90
e 38 91
e 38 93
e 38 96
e 38 97
e 38 98
e 39 41
e 39 43
e 39 44
e 39 45
e 39 46
e 39 52
e 39 54
e 39 55
e 39 56
e 39 58
e 39 60
e 39 63
e 39 64
e 39 67
e 39 68
e 39 70
e 39 73
e 39 74
e 39 77
e 39 79
e 39 81
e 39 82
e 39 84
e 39 88
e 39 91
e 39 93
e 39 99
e 40 41
e 40 42
e 40 48
e 40 51
e 40 52
e 40 53
e 40 59
e 40 60
e 40 62
e 40 65
e 40 66
e 40 67
e 40 70
e 40 75
e 40 76
e 40 77
e 40 78
e 40 79
e 40 81
e 40 82
e 40 83
e 40 84
e 40 87
e 40 91
e 40 92
e 40 93
e 40 94
e 40 96
e 40 97
e 40 98
e 40 100
e 41 42
e 41 43
e 41 44
e 41 51
e 41 52
e 41 53
e 41 55
e 41 56
e 41 57
e 41 60
e 41 62
e 41 63
e 41 65
e 41 69
e 41 72
e 41 74
e 41 75
e 41 76
e 41 77
e 41 79
e 41 83
e 41 85
e 41 86
e 41 89
e 41 93
e 41 96
e 41 97
e 41 99
e 42 43
e 42 45
e 42 47
e 42 48
e 42 49
e 42 50
e 42 53
e 42 61
e 42 64
e 42 65
e 42 66
e 42 67
e 42 68
e 42 70
e 42 71
e 42 72
e 42 74
e 42 86
e 42 89
e 42 90
e 42 91
e 42 92
e 42 94
e 42 97
e 43 44
e 43 45
e 43 46
e 43 47
e 43 49
e 43 50
e 43 51
e 43 53
e 43 55
e 43 56
e 43 57
e 43 58
e 43 59
e 43 61
e 43 63
e 43 64
e 43 65
e 43 68
e 43 70
e 43 73
e 43 75
e 43 83
e 43 86
e 43 88
e 43 89
e 43 90
e 43 91
e 43 100
e 44 46
e 44 48
e 44 51
e 44 56
e 44 57
e 44 58
e 44 60
e 44 61
e 44 62
e 44 63
e 44 64
e 44 65
e 44 67
e 44 69
e 44 70
e 44 75
e 44 79
e 44 80
e 44 83
e 44 84
e 44 88
e 44 89
e 44 91
e 44 93
e 44 94
e 44 95
e 44 100
e 45 48
e 45 49
e 45 50
e 45 52
e 45 53
e 45 54
e 45 55
e 45 57
e 45 59
e 45 60
e 45 62
e 45 65
e 45 67
e 45 69
e 45 72
e 45 73
e 45 76
e 45 77
e 45 82
e 45 83
e 45 85
e 45 87
e 45 91
e 45 92
e 45 93
e 45 94
e 45 97
e 45 99
e 46 49
e 46 50
e 46 51
e 46 52
e 46 55
e 46 58
e 46 63
e 46 64
e 46 65
e 46 66
e 46 67
e 46 68
e 46 69
e 46 70
e 46 71
e 46 72
e 46 76
e 46 78
e 46 80
e 46 81
e 46 86
e 46 88
e 46 90
e 46 91
e 46 95
e 47 48
e 47 49
e 47 56
e 47 58
e 47 59
e 47 61
e 47 63
e 47 64
e 47 67
e 47 69
e 47 71
e 47 72
e 47 73
e 47 74
e 47 75
e 47 76
e 47 80
e 47 86
e 47 89
e 47 90
e 47 92
e 47 93
e 47 100
e 48 50
e 48 51
e 48 53
e 48 54
e 48 57
e 48 58
e 48 60
e 48 65
e 48 66
e 48 68
e 48 69
e 48 71
e 48 74
e 48 75
e 48 77
e 48 78
e 48 81
e 48 85
e 48 87
e 48 89
e 48 91
e 48 92
e 48 93
e 48 95
e 48 98
e 48 99
e 48 100
e 49 50
e 49 51
e 49 52
e 49 53
e 49 54
e 49 55
e 49 56
e 49 61
e 49 63
e 49 64
e 49 68
e 49 72
e 49 74
e 49 77
e 49 79
e 49 84
e 49 85
e 49 87
e 49 91
e 49 97
e 50 54
e 50 55
e 50 57
e 50 58
e 50 64
e 50 65
e 50 67
e 50 68
e 50 69
e 50 70
e 50 71
e 50 75
e 50 76
e 50 80
e 50 82
e 50 86
e 50 87
e 50 88
e 50 94
e 50 96
e 50 98
e 50 99
e 51 52
e 51 55
e 51 56
e 51 57
e 51 60
e 51 61
e 51 63
e 51 71
e 51 75
e 51 78
e 51 83
e 51 84
e 51 86
e 51 89
e 51 90
e 51 91
e 51 92
e 51 93
e 51 97
e 51 100
e 52 53
e 52 54
e 52 55
e 52 58
e 52 63
e 52 66
e 52 67
e 52 70
e 52 71
e 52 74
e 52 75
e 52 76
e 52 77
e 52 79
e 52 80
e 52 83
e 52 84
e 52 88
e 52 91
e 52 93
e 52 94
e 52 97
e 52 98
e 52 99
e 53 55
e 53 57
e 53 65
e 53 69
e 53 70
e 53 75
e 53 77
e 53 78
e 53 79
e 53 82
e 53 84
e 53 86
e 53 88
e 53 90
e 53 92
e 53 93
e 53 98
e 53 99
e 54 55
e 54 56
e 54 58
e 54 59
e 54 60
e 54 62
e 54 63
e 54 64
e 54 68
e 54 69
e 54 70
e 54 71
e 54 74
e 54 79
e 54 81
e 54 83
e 54 85
e 54 86
e 54 87
e 54 92
e 54 95
e 54 96
e 54 97
e 54 99
e 55 57
e 55 58
e 55 59
e 55 60
e 55 61
e 55 65
e 55 66
e 55 69
e 55 70
e 55 72
e 55 73
e 55 74
e 55 82
e 55 84
e 55 90
e 55 94
e 55 98
e 55 99
e 56 57
e 56 59
e 56 64
e 56 66
e 56 71
e 56 74
e 56 75
e 56 77
e 56 79
e 56 80
e 56 82
e 56 83
e 56 84
e 56 86
e 56 87
e 56 90
e 56 91
e 56 92
e 56 93
e 56 95
e 56 96
e 56 100
e 57 60
e 57 61
e 57 62
e 57 64
e 57 68
e 57 79
e 57 80
e 57 81
e 57 85
e 57 86
e 57 87
e 57 88
e 57 91
e 57 92
e 57 95
e 57 96
e 57 100
e 58 63
e 58 66
e 58 67
e 58 69
e 58 71
e 58 73
e 58 77
e 58 78
e 58 83
e 58 86
e 58 87
e 58 88
e 58 90
e 58 91
e 58 94
e 58 100
e 59 60
e 59 61
e 59 64
e 59 66
e 59 70
e 59 72
e 59 73
e 59 74
e 59 75
e 59 76
e 59 78
e 59 79
e 59 82
e 59 83
e 59 87
e 59 88
e 59 92
e 59 94
e 59 96
e 59 100
e 60 61
e 60 62
e 60 69
e 60 71
e 60 72
e 60 79
e 60 80
e 60 81
e 60 85
e 60 86
e 60 89
e 60 90
e 60 92
e 60 94
e 60 96
e 60 97
e 60 100
e 61 66
e 61 71
e 61 72
e 61 73
e 61 74
e 61 75
e 61 76
e 61 77
e 61 82
e 61 87
e 61 88
e 61 89
e 61 93
e 61 94
e 61 96
e 61 97
e 62 67
e 62 68
e 62 70
e 62 72
e 62 73
e 62 76
e 62 78
e 62 80
e 62 82
e 62 83
e 62 88
e 62 92
e 62 94
e 62 95
e 62 96
e 62 97
e 62 98
e 63 64
e 63 66
e 63 67
e 63 72
e 63 74
e 63 76
e 63 80
e 63 84
e 63 87
e 63 88
e 63 89
e 63 91
e 63 92
e 63 93
e 63 95
e 63 96
e 64 69
e 64 71
e 64 72
e 64 73
e 64 76
e 64 77
e 64 78
e 64 80
e 64 84
e 64 85
e 64 86
e 64 89
e 64 90
e 64 97
e 64 98
e 64 100
e 65 66
e 65 68
e 65 73
e 65 75
e 65 76
e 65 78
e 65 79
e 65 80
e 65 82
e 65 83
e 65 85
e 65 86
e 65 88
e 65 91
e 65 92
e 65 95
e 65 96
e 65 98
e 66 67
e 66 68
e 66 69
e 66 71
e 66 72
e 66 73
e 66 74
e 66 77
e 66 81
e 66 84
e 66 88
e 66 89
e 66 94
e 66 95
e 66 96
e 66 98
e 67 70
e 67 72
e 67 74
e 67 75
e 67 84
e 67 86
e 67 89
e 67 92
e 67 95
e 67 97
e 68 70
e 68 78
e 68 80
e 68 82
e 68 84
e 68 85
e 68 86
e 68 87
e 68 89
e 68 90
e 68 91
e 68 95
e 68 100
e 69 75
e 69 76
e 69 78
e 69 79
e 69 81
e 69 86
e 69 87
e 69 90
e 69 94
e 69 98
e 70 72
e 70 74
e 70 76
e 70 79
e 70 80
e 70 85
e 70 86
e 70 87
e 70 96
e 70 97
e 70 98
e 70 99
e 71 73
e 71 76
e 71 78
e 71 82
e 71 88
e 71 89
e 71 93
e 71 95
e 71 97
e 71 100
e 72 76
e 72 80
e 72 82
e 72 86
e 72 87
e 72 90
e 72 91
e 72 96
e 72 97
e 72 100
e 73 74
e 73 77
e 73 78
e 73 79
e 73 85
e 73 87
e 73 89
e 73 90
e 73 91
e 73 92
e 73 94
e 73 96
e 73 100
e 74 77
e 74 78
e 74 80
e 74 81
e 74 82
e 74 85
e 74 87
e 74 90
e 74 93
e 74 94
e 74 95
e 74 96
e 74 99
e 75 77
e 75 78
e 75 80
e 75 82
e 75 83
e 75 88
e 75 93
e 75 96
e 75 97
e 75 99
e 76 77
e 76 79
e 76 82
e 76 83
e 76 84
e 76 85
e 76 86
e 76 88
e 76 89
e 76 95
e 76 100
e 77 78
e 77 80
e 77 82
e 77 83
e 77 84
e 77 85
e 77 86
e 77 92
e 77 93
e 77 100
e 78 79
e 78 82
e 78 84
e 78 87
e 78 88
e 78 93
e 78 98
e 78 99
e 79 81
e 79 82
e 79 83
e 79 84
e 79 86
e 79 91
e 79 94
e 79 95
e 80 81
e 80 82
e 80 84
e 80 87
e 80 98
e 80 99
e 80 100
e 81 84
e 81 86
e 81 88
e 81 89
e 81 94
e 81 96
e 81 98
e 82 85
e 82 86
e 82 87
e 82 92
e 82 96
e 82 98
e 83 85
e 83 86
e 83 88
e 83 95
e 83 96
e 83 99
e 84 85
e 84 86
e 84 91
e 84 92
e 84 93
e 84 94
e 84 97
e 84 98
e 84 100
e 85 88
e 85 89
e 85 90
e 85 91
e 85 93
e 85 97
e 85 100
e 86 87
e 86 90
e 86 91
e 86 93
e 86 95
e 86 96
e 86 97
e 87 90
e 87 91
e 87 94
e 87 96
e 87 97
e 88 89
e 88 90
e 88 91
e 88 96
e 88 97
e 88 98
e 88 100
e 89 92
e 89 94
e 89 98
e 89 99
e 90 91
e 90 93
e 90 94
e 90 95
e 90 96
e 92 93
e 92 97
e 92 99
e 93 95
e 93 97
e 94 95
e 94 97
e 94 98
e 95 96
e 95 99
e 95 100
e 96 99
e 97 100
e 99 100
n 17 2
n 19 2
n 26 2
n 29 2
n 32 2
n 33 2
n 34 2
n 41 2
n 45 2
n 47 2
n 49 2
n 50 2
n 51 2
n 53 2
n 56 2
n 63 2
n 67 2
n 70 2
n 71 2
n 73 2
n 75 2
n 78 2
n 81 1
n 87 2
n 91 2
n 92 2
n 93 2
n 95 2
n 97 2
n 99 2
